
(set-logic ALL) 

(declare-datatype MyList ((Nil) (Cons (head Real) (tail MyList)) )) 
(declare-fun l0 () MyList) 
(declare-fun l1 () MyList) 
(declare-fun l2 () MyList) 
(declare-fun l3 () MyList) 
(declare-fun i0 () Real) 
(declare-fun i1 () Real) 
(assert (= l1 l2) )
(assert (is-Nil l1) )
(assert (not (is-Cons Nil)) )
(assert (and (= l0 Nil) (is-Nil l3) (is-Cons Nil) (= l2 Nil)) )
(assert (and (= l2 Nil) (= l0 Nil) (= l1 Nil)) )
(assert (not (= l2 Nil)) )
(assert (is-Cons l2) )
(assert (or (= l3 Nil) (= l0 l2)) )
(check-sat)
